p wcnf 5000 500 1
1 1 0
1 2 0
1 3 0
1 4 0
1 5 0
1 6 0
1 7 0
1 8 0
1 9 0
1 10 0
1 11 0
1 12 0
1 13 0
1 14 0
1 15 0
1 1 1 1 1 1 1 1 1 1 1 1 1 1 1 0
1 1 1 1 1 1 1 1 1 1 1 1 1 1 1 0
1 1 1 1 1 1 1 2 2 2 2 2 2 2 2 0
1 2 2 2 2 2 2 2 2 2 2 2 2 2 2 0
1 2 2 2 2 2 2 2 2 2 2 2 2 2 2 0
1 2 2 2 2 2 2 2 2 2 2 2 2 2 3 0
1 3 3 3 3 3 3 3 3 3 3 3 3 3 3 0
1 3 3 3 3 3 3 3 3 3 3 3 3 3 3 0
1 3 3 3 3 3 3 3 3 3 3 3 4 4 4 0
1 4 4 4 4 4 4 4 4 4 4 4 4 4 4 0
1 4 4 4 4 4 4 4 4 4 4 4 4 4 4 0
1 4 4 4 4 4 4 4 4 4 4 4 4 4 4 0
1 4 4 4 4 4 4 4 4 5 5 5 5 5 5 0
1 5 5 5 5 5 5 5 5 5 5 5 5 5 5 0
1 5 5 5 5 5 5 5 5 5 5 5 5 5 5 0
1 5 5 5 5 5 5 5 5 5 5 5 5 5 6 0
1 6 6 6 6 6 6 6 6 6 6 6 6 6 6 0
1 6 6 6 6 6 6 6 6 6 6 6 6 6 6 0
1 6 6 6 6 6 6 6 6 6 6 6 6 6 6 0
1 6 6 6 6 6 6 6 6 6 7 7 7 7 7 0
1 7 7 7 7 7 7 7 7 7 7 7 7 7 7 0
1 7 7 7 7 7 7 7 7 7 7 7 7 7 7 0
1 7 7 7 7 7 7 7 7 7 7 7 7 7 7 0
1 7 7 7 7 7 7 7 8 8 8 8 8 8 8 0
1 8 8 8 8 8 8 8 8 8 8 8 8 8 8 0
1 8 8 8 8 8 8 8 8 8 8 8 8 8 8 0
1 8 8 8 8 8 8 8 8 9 9 9 9 9 9 0
1 9 9 9 9 9 9 9 9 9 9 9 9 9 9 0
1 9 9 9 9 9 9 9 9 9 9 9 9 9 9 0
1 9 9 9 9 9 9 9 9 9 9 9 9 9 9 0
1 9 9 9 9 9 9 9 9 9 10 10 10 10 10 0
1 10 10 10 10 10 10 10 10 10 10 10 10 10 10 0
1 10 10 10 10 10 10 10 10 10 10 10 10 10 10 0
1 10 10 10 10 10 10 10 10 10 10 11 11 11 11 0
1 11 11 11 11 11 11 11 11 11 11 11 11 11 11 0
1 11 11 11 11 11 11 11 11 11 11 11 11 11 11 0
1 11 11 11 11 11 11 11 11 11 12 12 12 12 12 0
1 12 12 12 12 12 12 12 12 12 12 12 12 12 12 0
1 12 12 12 12 12 12 12 12 12 12 12 12 12 12 0
1 12 12 12 12 12 12 12 12 12 12 12 12 12 12 0
1 12 12 12 12 12 13 13 13 13 13 13 13 13 13 0
1 13 13 13 13 13 13 13 13 13 13 13 13 13 13 0
1 13 13 13 13 13 13 13 13 13 13 13 13 13 13 0
1 13 13 13 13 13 13 13 13 13 13 13 14 14 14 0
1 14 14 14 14 14 14 14 14 14 14 14 14 14 14 0
1 14 14 14 14 14 14 14 14 14 14 14 14 14 14 0
1 14 14 14 14 14 14 14 14 14 14 14 14 14 14 0
1 15 15 15 15 15 15 15 15 15 15 15 15 15 15 0
1 15 15 15 15 15 15 15 15 15 15 15 15 15 15 0
1 15 15 15 15 15 15 15 15 15 15 15 15 15 15 0
1 15 15 15 15 15 15 15 15 15 15 15 15 16 16 0
1 16 16 16 16 16 16 16 16 16 16 16 16 16 16 0
1 16 16 16 16 16 16 16 16 16 16 16 16 16 16 0
1 16 16 16 16 16 16 16 16 16 16 16 16 16 16 0
1 16 16 17 17 17 17 17 17 17 17 17 17 17 17 0
1 17 17 17 17 17 17 17 17 17 17 17 17 17 17 0
1 17 17 17 17 17 17 17 17 17 17 17 17 17 17 0
1 17 17 17 17 17 18 18 18 18 18 18 18 18 18 0
1 18 18 18 18 18 18 18 18 18 18 18 18 18 18 0
1 18 18 18 18 18 18 18 18 18 18 18 18 18 18 0
1 19 19 19 19 19 19 19 19 19 19 19 19 19 19 0
1 19 19 19 19 19 19 19 19 19 19 19 19 19 19 0
1 19 19 19 19 19 19 19 19 19 19 19 19 19 19 0
1 19 19 19 19 19 19 19 20 20 20 20 20 20 20 0
1 20 20 20 20 20 20 20 20 20 20 20 20 20 20 0
1 20 20 20 20 20 20 20 20 20 20 20 20 20 20 0
1 20 20 20 20 20 20 20 20 20 20 20 21 21 21 0
1 21 21 21 21 21 21 21 21 21 21 21 21 21 21 0
1 21 21 21 21 21 21 21 21 21 21 21 21 21 21 0
1 21 21 21 21 21 21 21 21 21 21 21 21 21 21 0
1 21 21 21 21 21 22 22 22 22 22 22 22 22 22 0
1 22 22 22 22 22 22 22 22 22 22 22 22 22 22 0
1 22 22 22 22 22 22 22 22 22 22 22 22 22 22 0
1 22 22 22 22 22 22 22 22 22 22 22 22 22 23 0
1 23 23 23 23 23 23 23 23 23 23 23 23 23 23 0
1 23 23 23 23 23 23 23 23 23 23 23 23 23 23 0
1 23 23 23 23 23 23 23 23 23 23 23 23 23 23 0
1 23 23 23 23 23 23 23 23 23 23 23 23 23 24 0
1 24 24 24 24 24 24 24 24 24 24 24 24 24 24 0
1 24 24 24 24 24 24 24 24 24 24 24 24 24 24 0
1 24 24 24 24 24 24 24 24 24 24 24 24 24 24 0
1 24 24 24 24 24 24 24 24 24 24 24 24 24 25 0
1 25 25 25 25 25 25 25 25 25 25 25 25 25 25 0
1 25 25 25 25 25 25 25 25 25 25 25 25 25 25 0
1 25 25 25 25 25 25 25 25 25 25 25 25 25 25 0
1 25 25 25 25 25 25 25 25 25 25 26 26 26 26 0
1 26 26 26 26 26 26 26 26 26 26 26 26 26 26 0
1 26 26 26 26 26 26 26 26 26 26 26 26 26 26 0
1 26 26 26 26 26 26 26 26 26 26 26 26 26 26 0
1 27 27 27 27 27 27 27 27 27 27 27 27 27 27 0
1 27 27 27 27 27 27 27 27 27 27 27 27 27 27 0
1 27 27 27 27 27 27 27 27 27 27 27 27 27 27 0
1 27 27 27 27 27 28 28 28 28 28 28 28 28 28 0
1 28 28 28 28 28 28 28 28 28 28 28 28 28 28 0
1 28 28 28 28 28 28 28 28 28 28 28 28 28 28 0
1 28 28 28 28 28 28 28 28 28 28 28 28 28 28 0
1 28 28 28 29 29 29 29 29 29 29 29 29 29 29 0
1 29 29 29 29 29 29 29 29 29 29 29 29 29 29 0
1 29 29 29 29 29 29 29 29 29 29 29 29 29 29 0
1 29 29 29 29 29 29 29 29 29 29 29 29 29 30 0
1 30 30 30 30 30 30 30 30 30 30 30 30 30 30 0
1 30 30 30 30 30 30 30 30 30 30 30 30 30 30 0
1 30 30 30 30 30 30 30 30 30 30 30 30 30 30 0
1 30 30 30 30 30 31 31 31 31 31 31 31 31 31 0
1 31 31 31 31 31 31 31 31 31 31 31 31 31 31 0
1 31 31 31 31 31 31 31 31 31 31 31 31 31 31 0
1 31 32 32 32 32 32 32 32 32 32 32 32 32 32 0
1 32 32 32 32 32 32 32 32 32 32 32 32 32 32 0
1 32 32 32 32 32 32 32 32 32 32 32 32 32 32 0
1 32 32 32 32 32 32 33 33 33 33 33 33 33 33 0
1 33 33 33 33 33 33 33 33 33 33 33 33 33 33 0
1 33 33 33 33 33 33 33 33 33 33 33 33 33 33 0
1 33 33 33 33 33 33 33 33 33 33 33 33 33 33 0
1 33 33 33 34 34 34 34 34 34 34 34 34 34 34 0
1 34 34 34 34 34 34 34 34 34 34 34 34 34 34 0
1 34 34 34 34 34 34 34 34 34 34 34 34 34 34 0
1 34 34 34 34 34 34 34 34 34 34 35 35 35 35 0
1 35 35 35 35 35 35 35 35 35 35 35 35 35 35 0
1 35 35 35 35 35 35 35 35 35 35 35 35 35 35 0
1 35 35 35 35 35 35 35 35 35 35 35 35 35 35 0
1 36 36 36 36 36 36 36 36 36 36 36 36 36 36 0
1 36 36 36 36 36 36 36 36 36 36 36 36 36 36 0
1 36 36 36 36 36 37 37 37 37 37 37 37 37 37 0
1 37 37 37 37 37 37 37 37 37 37 37 37 37 37 0
1 37 37 37 37 37 37 37 37 37 37 37 37 37 37 0
1 37 37 37 37 37 37 37 37 37 37 38 38 38 38 0
1 38 38 38 38 38 38 38 38 38 38 38 38 38 38 0
1 38 38 38 38 38 38 38 38 38 38 38 38 38 38 0
1 38 38 38 38 38 38 38 38 38 38 39 39 39 39 0
1 39 39 39 39 39 39 39 39 39 39 39 39 39 39 0
1 39 39 39 39 39 39 39 39 39 39 39 39 39 39 0
1 39 39 39 39 39 39 39 39 39 39 39 39 39 39 0
1 39 39 39 39 39 39 40 40 40 40 40 40 40 40 0
1 40 40 40 40 40 40 40 40 40 40 40 40 40 40 0
1 40 40 40 40 40 40 40 40 40 40 40 40 40 40 0
1 40 40 40 40 40 40 40 40 40 40 40 40 40 40 0
1 41 41 41 41 41 41 41 41 41 41 41 41 41 41 0
1 41 41 41 41 41 41 41 41 41 41 41 41 41 41 0
1 41 41 41 41 41 41 41 41 42 42 42 42 42 42 0
1 42 42 42 42 42 42 42 42 42 42 42 42 42 42 0
1 42 42 42 42 42 42 42 42 42 42 42 42 42 42 0
1 42 42 42 42 42 42 42 42 42 42 42 42 42 42 0
1 42 42 43 43 43 43 43 43 43 43 43 43 43 43 0
1 43 43 43 43 43 43 43 43 43 43 43 43 43 43 0
1 43 43 43 43 43 43 43 43 43 43 43 43 43 43 0
1 43 43 43 43 43 43 43 43 43 43 43 43 43 43 0
1 44 44 44 44 44 44 44 44 44 44 44 44 44 44 0
1 44 44 44 44 44 44 44 44 44 44 44 44 44 44 0
1 44 44 44 44 44 44 44 44 44 44 44 44 44 44 0
1 44 44 44 44 44 44 44 44 44 44 44 44 44 45 0
1 45 45 45 45 45 45 45 45 45 45 45 45 45 45 0
1 45 45 45 45 45 45 45 45 45 45 45 45 45 45 0
1 45 45 45 45 45 45 45 45 45 45 45 45 45 45 0
1 45 45 45 46 46 46 46 46 46 46 46 46 46 46 0
1 46 46 46 46 46 46 46 46 46 46 46 46 46 46 0
1 46 46 46 46 46 46 46 46 46 46 46 46 46 46 0
1 47 47 47 47 47 47 47 47 47 47 47 47 47 47 0
1 47 47 47 47 47 47 47 47 47 47 47 47 47 47 0
1 47 47 47 47 47 47 47 47 47 47 47 47 47 47 0
1 47 47 47 47 47 47 48 48 48 48 48 48 48 48 0
1 48 48 48 48 48 48 48 48 48 48 48 48 48 48 0
1 48 48 48 48 48 48 48 48 48 48 48 48 48 48 0
1 48 48 48 48 48 49 49 49 49 49 49 49 49 49 0
1 49 49 49 49 49 49 49 49 49 49 49 49 49 49 0
1 49 49 49 49 49 49 49 49 49 49 49 49 49 49 0
1 49 49 49 49 49 50 50 50 50 50 50 50 50 50 0
1 50 50 50 50 50 50 50 50 50 50 50 50 50 50 0
1 50 50 50 50 50 50 50 50 50 50 50 50 50 50 0
1 50 50 50 50 50 50 50 50 50 50 50 50 50 50 0
1 50 50 50 50 50 50 50 50 50 50 51 51 51 51 0
1 51 51 51 51 51 51 51 51 51 51 51 51 51 51 0
1 51 51 51 51 51 51 51 51 51 51 51 51 51 51 0
1 51 51 51 51 51 51 51 51 51 51 51 51 51 51 0
1 51 51 51 52 52 52 52 52 52 52 52 52 52 52 0
1 52 52 52 52 52 52 52 52 52 52 52 52 52 52 0
1 52 52 52 52 52 52 52 52 52 52 52 52 52 52 0
1 52 52 52 52 52 52 52 53 53 53 53 53 53 53 0
1 53 53 53 53 53 53 53 53 53 53 53 53 53 53 0
1 53 53 53 53 53 53 53 53 53 53 53 53 53 53 0
1 53 53 53 53 53 53 53 53 53 53 53 53 54 54 0
1 54 54 54 54 54 54 54 54 54 54 54 54 54 54 0
1 54 54 54 54 54 54 54 54 54 54 54 54 54 54 0
1 54 54 54 54 54 54 54 54 54 54 54 54 54 54 0
1 54 54 55 55 55 55 55 55 55 55 55 55 55 55 0
1 55 55 55 55 55 55 55 55 55 55 55 55 55 55 0
1 55 55 55 55 55 55 55 55 55 55 55 55 55 55 0
1 55 55 55 55 55 56 56 56 56 56 56 56 56 56 0
1 56 56 56 56 56 56 56 56 56 56 56 56 56 56 0
1 56 56 56 56 56 56 56 56 56 56 56 56 56 56 0
1 56 56 56 56 56 56 56 56 56 56 57 57 57 57 0
1 57 57 57 57 57 57 57 57 57 57 57 57 57 57 0
1 57 57 57 57 57 57 57 57 57 57 57 57 57 57 0
1 57 57 57 57 57 57 57 57 57 57 57 57 57 57 0
1 57 57 57 58 58 58 58 58 58 58 58 58 58 58 0
1 58 58 58 58 58 58 58 58 58 58 58 58 58 58 0
1 58 58 58 58 58 58 58 58 58 58 58 58 58 58 0
1 58 58 58 58 58 59 59 59 59 59 59 59 59 59 0
1 59 59 59 59 59 59 59 59 59 59 59 59 59 59 0
1 59 59 59 59 59 59 59 59 59 59 59 59 59 59 0
1 59 59 59 59 60 60 60 60 60 60 60 60 60 60 0
1 60 60 60 60 60 60 60 60 60 60 60 60 60 60 0
1 60 60 60 60 60 60 60 60 60 60 60 60 60 60 0
1 60 60 60 60 60 60 60 60 60 60 60 60 60 60 0
1 61 61 61 61 61 61 61 61 61 61 61 61 61 61 0
1 61 61 61 61 61 61 61 61 61 61 61 61 61 61 0
1 61 61 61 61 61 61 61 61 61 61 61 61 61 61 0
1 61 61 61 61 62 62 62 62 62 62 62 62 62 62 0
1 62 62 62 62 62 62 62 62 62 62 62 62 62 62 0
1 62 62 62 62 62 62 62 62 62 62 62 62 62 62 0
1 62 63 63 63 63 63 63 63 63 63 63 63 63 63 0
1 63 63 63 63 63 63 63 63 63 63 63 63 63 63 0
1 63 63 63 63 63 63 63 63 63 63 63 63 63 63 0
1 63 63 63 63 63 63 63 63 63 63 63 63 63 63 0
1 63 63 64 64 64 64 64 64 64 64 64 64 64 64 0
1 64 64 64 64 64 64 64 64 64 64 64 64 64 64 0
1 64 64 64 64 64 64 64 64 64 64 64 64 64 64 0
1 64 64 65 65 65 65 65 65 65 65 65 65 65 65 0
1 65 65 65 65 65 65 65 65 65 65 65 65 65 65 0
1 65 65 65 65 65 65 65 65 65 65 65 65 65 65 0
1 65 65 65 65 65 66 66 66 66 66 66 66 66 66 0
1 66 66 66 66 66 66 66 66 66 66 66 66 66 66 0
1 66 66 66 66 66 66 66 66 66 66 66 66 66 66 0
1 66 66 66 66 67 67 67 67 67 67 67 67 67 67 0
1 67 67 67 67 67 67 67 67 67 67 67 67 67 67 0
1 67 67 67 67 67 67 67 67 67 67 67 67 67 67 0
1 67 67 67 67 67 67 67 67 67 67 67 67 67 67 0
1 68 68 68 68 68 68 68 68 68 68 68 68 68 68 0
1 68 68 68 68 68 68 68 68 68 68 68 68 68 68 0
1 68 68 68 68 68 68 68 68 68 68 68 68 68 68 0
1 69 69 69 69 69 69 69 69 69 69 69 69 69 69 0
1 69 69 69 69 69 69 69 69 69 69 69 69 69 69 0
1 69 69 69 69 69 69 70 70 70 70 70 70 70 70 0
1 70 70 70 70 70 70 70 70 70 70 70 70 70 70 0
1 70 70 70 70 70 70 70 70 70 70 70 70 70 70 0
1 70 70 70 70 70 70 70 70 70 70 70 70 70 70 0
1 70 70 70 70 70 70 70 71 71 71 71 71 71 71 0
1 71 71 71 71 71 71 71 71 71 71 71 71 71 71 0
1 71 71 71 71 71 71 71 71 71 71 71 71 71 71 0
1 71 71 71 71 71 71 71 71 71 72 72 72 72 72 0
1 72 72 72 72 72 72 72 72 72 72 72 72 72 72 0
1 72 72 72 72 72 72 72 72 72 72 72 72 72 72 0
1 72 72 72 72 72 72 72 72 72 72 72 72 73 73 0
1 73 73 73 73 73 73 73 73 73 73 73 73 73 73 0
1 73 73 73 73 73 73 73 73 73 73 73 73 73 73 0
1 73 73 73 73 73 73 73 73 73 74 74 74 74 74 0
1 74 74 74 74 74 74 74 74 74 74 74 74 74 74 0
1 74 74 74 74 74 74 74 74 74 74 74 74 74 74 0
1 74 74 74 74 74 74 74 74 74 74 74 74 74 74 0
1 75 75 75 75 75 75 75 75 75 75 75 75 75 75 0
1 75 75 75 75 75 75 75 75 75 75 75 75 75 75 0
1 75 75 75 75 75 75 75 75 75 75 75 75 75 75 0
1 75 75 75 75 75 76 76 76 76 76 76 76 76 76 0
1 76 76 76 76 76 76 76 76 76 76 76 76 76 76 0
1 76 76 76 76 76 76 76 76 76 76 76 76 76 76 0
1 76 76 76 76 76 76 76 76 76 76 76 76 77 77 0
1 77 77 77 77 77 77 77 77 77 77 77 77 77 77 0
1 77 77 77 77 77 77 77 77 77 77 77 77 77 77 0
1 77 77 77 77 77 77 77 77 77 77 77 77 77 77 0
1 77 77 77 77 77 77 77 77 77 77 77 78 78 78 0
1 78 78 78 78 78 78 78 78 78 78 78 78 78 78 0
1 78 78 78 78 78 78 78 78 78 78 78 78 78 78 0
1 78 78 78 78 78 78 78 78 78 78 78 79 79 79 0
1 79 79 79 79 79 79 79 79 79 79 79 79 79 79 0
1 79 79 79 79 79 79 79 79 79 79 79 79 79 79 0
1 79 79 79 79 79 79 80 80 80 80 80 80 80 80 0
1 80 80 80 80 80 80 80 80 80 80 80 80 80 80 0
1 80 80 80 80 80 80 80 80 80 80 80 80 80 80 0
1 80 80 80 80 80 80 80 80 80 80 80 80 80 80 0
1 80 81 81 81 81 81 81 81 81 81 81 81 81 81 0
1 81 81 81 81 81 81 81 81 81 81 81 81 81 81 0
1 81 82 82 82 82 82 82 82 82 82 82 82 82 82 0
1 82 82 82 82 82 82 82 82 82 82 82 82 82 82 0
1 82 82 82 82 82 82 82 82 82 82 82 82 82 82 0
1 82 82 83 83 83 83 83 83 83 83 83 83 83 83 0
1 83 83 83 83 83 83 83 83 83 83 83 83 83 83 0
1 83 83 83 83 83 83 83 83 83 83 83 83 83 83 0
1 83 84 84 84 84 84 84 84 84 84 84 84 84 84 0
1 84 84 84 84 84 84 84 84 84 84 84 84 84 84 0
1 84 84 84 84 84 84 84 84 84 84 84 84 84 84 0
1 85 85 85 85 85 85 85 85 85 85 85 85 85 85 0
1 85 85 85 85 85 85 85 85 85 85 85 85 85 85 0
1 85 85 85 85 85 85 85 85 85 85 85 85 85 85 0
1 86 86 86 86 86 86 86 86 86 86 86 86 86 86 0
1 86 86 86 86 86 86 86 86 86 86 86 86 86 86 0
1 86 86 86 86 86 86 86 86 86 86 86 86 86 86 0
1 86 86 86 86 86 86 87 87 87 87 87 87 87 87 0
1 87 87 87 87 87 87 87 87 87 87 87 87 87 87 0
1 87 87 87 87 87 87 87 87 87 87 87 87 87 87 0
1 87 87 87 87 87 87 87 87 87 87 88 88 88 88 0
1 88 88 88 88 88 88 88 88 88 88 88 88 88 88 0
1 88 88 88 88 88 88 88 88 88 88 88 88 88 88 0
1 88 88 88 88 88 88 88 88 88 88 88 88 89 89 0
1 89 89 89 89 89 89 89 89 89 89 89 89 89 89 0
1 89 89 89 89 89 89 89 89 89 89 89 89 89 89 0
1 89 89 89 89 89 89 89 89 89 89 89 89 89 89 0
1 90 90 90 90 90 90 90 90 90 90 90 90 90 90 0
1 90 90 90 90 90 90 90 90 90 90 90 90 90 90 0
1 90 90 90 90 90 90 90 90 90 90 90 90 90 90 0
1 90 90 90 90 90 90 90 90 91 91 91 91 91 91 0
1 91 91 91 91 91 91 91 91 91 91 91 91 91 91 0
1 91 91 91 91 91 91 91 91 91 91 91 91 91 91 0
1 91 91 91 91 91 91 91 91 91 91 91 91 91 91 0
1 91 91 91 91 91 92 92 92 92 92 92 92 92 92 0
1 92 92 92 92 92 92 92 92 92 92 92 92 92 92 0
1 92 92 92 92 92 92 92 92 92 92 92 92 92 92 0
1 92 92 92 92 92 92 92 92 92 92 92 93 93 93 0
1 93 93 93 93 93 93 93 93 93 93 93 93 93 93 0
1 93 93 93 93 93 93 93 93 93 93 93 93 93 93 0
1 93 93 94 94 94 94 94 94 94 94 94 94 94 94 0
1 94 94 94 94 94 94 94 94 94 94 94 94 94 94 0
1 94 94 94 94 94 94 94 94 94 94 94 94 94 94 0
1 94 94 94 94 94 94 94 94 94 95 95 95 95 95 0
1 95 95 95 95 95 95 95 95 95 95 95 95 95 95 0
1 95 95 95 95 95 95 95 95 95 95 95 95 95 95 0
1 95 95 95 95 95 95 95 95 95 95 96 96 96 96 0
1 96 96 96 96 96 96 96 96 96 96 96 96 96 96 0
1 96 96 96 96 96 96 96 96 96 96 96 96 96 96 0
1 96 96 96 96 96 96 96 96 97 97 97 97 97 97 0
1 97 97 97 97 97 97 97 97 97 97 97 97 97 97 0
1 97 97 97 97 97 97 97 97 97 97 97 97 97 97 0
1 97 97 97 97 97 97 97 97 97 97 97 97 97 97 0
1 97 97 97 97 97 97 97 97 97 97 97 98 98 98 0
1 98 98 98 98 98 98 98 98 98 98 98 98 98 98 0
1 98 98 98 98 98 98 98 98 98 98 98 98 98 98 0
1 98 98 98 98 98 98 98 98 98 98 98 98 98 98 0
1 98 98 98 98 98 98 98 99 99 99 99 99 99 99 0
1 99 99 99 99 99 99 99 99 99 99 99 99 99 99 0
1 99 99 99 99 99 99 99 99 99 99 99 99 99 99 0
1 99 99 99 99 99 99 99 99 99 99 99 99 99 99 0
1 100 100 100 100 100 100 100 100 100 100 100 100 100 100 0
1 100 100 100 100 100 100 100 100 100 100 100 100 100 100 0
1 100 100 100 100 100 100 100 100 100 100 100 100 100 100 0
1 100 100 100 100 0
1  0
1 6 10 12 14 18 27 33 36 37 39 47 56 66 69 0
1 75 78 83 87 97 111 118 120 125 130 131 133 135 152 0
1 154 155 166 170 174 181 185 191 193 196 198 205 207 208 0
1 214 237 244 247 249 256 272 277 283 286 297 304 306 311 0
1 324 334 339 342 343 349 360 363 365 379 383 389 390 397 0
1 406 407 417 418 421 422 431 437 451 453 461 462 466 478 0
1 480 481 495 497 510 525 554 561 564 566 569 572 575 576 0
1 582 584 592 593 598 601 608 610 621 625 636 646 649 650 0
1 664 674 678 679 682 685 687 691 696 697 699 704 705 711 0
1 722 725 737 739 742 743 746 748 749 759 760 761 763 766 0
1 773 777 780 782 785 790 797 798 799 806 809 818 819 825 0
1 840 846 853 858 859 865 866 869 870 879 880 883 887 891 0
1 894 900 903 907 908 912 917 921 924 928 939 942 946 958 0
1 969 972 977 981 982 986 998 1016 1018 1022 1024 1029 1031 1032 0
1 1054 1062 1068 1071 1072 1077 1082 1087 1091 1098 1099 1112 1116 1129 0
1 1131 1137 1142 1151 1155 1156 1158 1166 1168 1172 1175 1176 1198 1201 0
1 1207 1209 1213 1214 1215 1224 1225 1237 1245 1247 1264 1265 1268 1274 0
1 1289 1296 1310 1330 1332 1348 1349 1350 1357 1359 1360 1362 1369 1372 0
1 1387 1391 1406 1417 1420 1429 1430 1431 1437 1445 1449 1454 1461 1468 0
1 1472 1474 1477 1480 1481 1483 1490 1496 1497 1508 1515 1516 1518 1520 0
1 1536 1553 1567 1570 1571 1574 1576 1595 1596 1598 1601 1604 1606 1609 0
1 1614 1616 1618 1627 1632 1639 1652 1653 1657 1660 1661 1674 1675 1676 0
1 1691 1692 1702 1706 1710 1712 1713 1715 1718 1719 1723 1732 1740 1741 0
1 1744 1749 1751 1754 1755 1766 1785 1791 1792 1794 1795 1797 1798 1799 0
1 1808 1815 1816 1817 1818 1820 1824 1826 1828 1834 1838 1841 1845 1849 0
1 1856 1870 1871 1872 1882 1884 1885 1888 1900 1906 1909 1911 1919 1920 0
1 1941 1944 1953 1956 1963 1964 1969 1984 1996 2002 2016 2021 2029 2033 0
1 2039 2052 2060 2061 2063 2065 2067 2071 2072 2076 2084 2089 2091 2094 0
1 2107 2108 2111 2116 2117 2122 2125 2127 2132 2142 2155 2161 2162 2171 0
1 2187 2194 2196 2210 2211 2221 2225 2226 2233 2237 2238 2251 2253 2264 0
1 2270 2277 2295 2306 2307 2313 2316 2322 2331 2336 2341 2343 2347 2348 0
1 2352 2357 2374 2376 2387 2391 2392 2403 2407 2410 2414 2417 2426 2439 0
1 2444 2455 2457 2461 2462 2466 2467 2468 2486 2492 2494 2500 2504 2509 0
1 2516 2521 2525 2527 2537 2545 2553 2555 2566 2572 2574 2575 2576 2577 0
1 2586 2587 2589 2594 2605 2606 2609 2617 2620 2635 2638 2641 2643 2645 0
1 2651 2657 2659 2665 2666 2674 2677 2679 2687 2694 2697 2699 2702 2703 0
1 2708 2717 2718 2726 2728 2738 2747 2748 2758 2765 2774 2779 2780 2784 0
1 2787 2790 2795 2812 2820 2828 2829 2832 2835 2837 2840 2844 2851 2853 0
1 2867 2874 2879 2886 2894 2899 2904 2919 2940 2944 2950 2953 2967 2973 0
1 2976 2992 2995 2996 3007 3013 3014 3016 3017 3026 3032 3034 3042 3044 0
1 3052 3062 3065 3072 3074 3075 3076 3080 3081 3085 3087 3093 3096 3102 0
1 3104 3117 3118 3127 3132 3136 3141 3142 3146 3153 3157 3162 3165 3168 0
1 3174 3175 3176 3180 3186 3187 3190 3192 3198 3204 3210 3217 3220 3224 0
1 3233 3243 3245 3256 3288 3294 3299 3313 3320 3321 3322 3323 3328 3329 0
1 3333 3335 3344 3347 3354 3365 3368 3377 3384 3385 3400 3403 3408 3417 0
1 3432 3435 3447 3454 3457 3458 3466 3468 3475 3476 3479 3483 3488 3503 0
1 3511 3512 3513 3517 3519 3523 3526 3534 3543 3549 3552 3554 3555 3559 0
1 3569 3578 3579 3584 3594 3595 3601 3602 3610 3620 3623 3624 3628 3641 0
1 3650 3652 3661 3664 3686 3689 3690 3693 3695 3697 3706 3707 3708 3711 0
1 3721 3733 3737 3746 3748 3751 3752 3754 3760 3761 3763 3769 3774 3780 0
1 3792 3798 3799 3803 3806 3809 3812 3817 3820 3827 3834 3840 3842 3846 0
1 3867 3869 3870 3875 3887 3891 3893 3900 3901 3902 3906 3909 3910 3913 0
1 3921 3925 3933 3934 3942 3943 3949 3951 3952 3957 3966 3969 3970 3975 0
1 3983 4002 4004 4008 4012 4016 4029 4035 4040 4044 4058 4061 4070 4071 0
1 4079 4082 4089 4097 4099 4111 4112 4113 4115 4121 4130 4137 4139 4140 0
1 4161 4166 4170 4173 4176 4180 4186 4190 4193 4203 4207 4214 4217 4219 0
1 4221 4222 4226 4228 4233 4237 4238 4246 4254 4255 4262 4265 4271 4279 0
1 4285 4286 4287 4293 4303 4304 4307 4327 4332 4341 4347 4352 4366 4367 0
1 4373 4377 4384 4392 4399 4402 4403 4406 4409 4422 4423 4427 4429 4431 0
1 4450 4453 4458 4461 4471 4481 4487 4498 4502 4512 4524 4526 4532 4538 0
1 4557 4571 4574 4576 4586 4588 4591 4609 4611 4614 4616 4620 4633 4638 0
1 4643 4652 4655 4668 4671 4672 4677 4682 4687 4691 4696 4701 4704 4714 0
1 4721 4722 4737 4747 4762 4764 4768 4781 4782 4785 4799 4827 4830 4839 0
1 4845 4855 4857 4859 4866 4868 4873 4877 4878 4883 4884 4892 4898 4900 0
1 4913 4928 4930 4931 4944 4955 4962 4967 4968 4969 4978 4993 4997 0
1  0
1 8 9 19 22 24 26 31 35 39 49 53 54 55 61 0
1 66 67 68 70 80 82 85 90 91 92 96 109 112 114 0
1 118 132 138 144 145 146 147 151 158 159 162 164 165 171 0
1 179 197 198 200 203 205 210 219 226 230 233 239 240 248 0
1 267 271 273 277 280 286 287 288 293 295 301 305 306 308 0
1 327 328 332 341 348 351 355 362 368 370 371 373 376 383 0
1 401 415 416 421 427 432 433 436 438 441 442 447 448 458 0
1 468 485 488 491 492 493 495 504 506 512 523 524 527 535 0
1 541 546 552 558 562 566 571 579 580 587 588 598 605 618 0
1 627 628 633 642 651 653 661 665 673 675 676 681 685 691 0
1 696 697 698 700 710 711 721 725 727 728 735 741 746 747 0
1 757 760 762 781 787 791 801 803 813 820 832 833 836 840 0
1 852 857 862 865 866 874 880 882 884 887 888 896 900 905 0
1 913 915 928 929 933 940 949 953 954 964 966 981 996 998 0
1 1018 1027 1033 1040 1044 1047 1054 1059 1067 1074 1077 1079 1082 1102 0
1 1113 1115 1117 1122 1129 1132 1136 1139 1142 1148 1152 1156 1162 1168 0
1 1172 1173 1176 1185 1191 1192 1200 1201 1205 1210 1220 1221 1223 1227 0
1 1231 1239 1246 1250 1252 1256 1260 1261 1262 1268 1270 1275 1277 1299 0
1 1306 1313 1314 1315 1316 1330 1331 1333 1334 1341 1342 1357 1372 1381 0
1 1394 1395 1397 1399 1402 1410 1419 1420 1430 1439 1444 1456 1461 1465 0
1 1470 1484 1487 1492 1500 1501 1509 1510 1518 1521 1523 1528 1533 1536 0
1 1541 1545 1551 1552 1555 1560 1573 1577 1590 1596 1601 1607 1608 1609 0
1 1612 1619 1625 1631 1641 1645 1659 1664 1665 1666 1669 1672 1675 1679 0
1 1687 1689 1691 1698 1706 1718 1722 1725 1726 1745 1751 1757 1758 1763 0
1 1767 1770 1773 1774 1775 1778 1790 1795 1797 1798 1817 1818 1820 1829 0
1 1832 1837 1840 1851 1852 1854 1857 1869 1873 1877 1885 1888 1899 1906 0
1 1915 1921 1927 1941 1942 1943 1945 1948 1949 1950 1960 1961 1964 1970 0
1 1979 1980 1981 1987 1990 1995 2004 2005 2012 2013 2018 2020 2021 2022 0
1 2025 2027 2033 2037 2044 2047 2061 2063 2072 2074 2076 2085 2089 2094 0
1 2104 2110 2111 2114 2120 2124 2136 2138 2139 2142 2146 2148 2158 2160 0
1 2175 2177 2186 2189 2197 2199 2203 2213 2215 2216 2218 2222 2227 2228 0
1 2230 2232 2236 2238 2239 2257 2272 2274 2277 2278 2281 2289 2293 2296 0
1 2317 2319 2320 2321 2323 2332 2342 2343 2354 2363 2367 2380 2382 2383 0
1 2394 2398 2401 2403 2408 2409 2410 2411 2415 2417 2428 2436 2441 2457 0
1 2462 2464 2478 2481 2500 2503 2507 2510 2512 2535 2537 2542 2549 2562 0
1 2569 2574 2581 2588 2589 2593 2595 2627 2629 2639 2643 2649 2652 2657 0
1 2666 2667 2672 2686 2687 2692 2702 2703 2714 2719 2723 2727 2728 2731 0
1 2752 2755 2756 2757 2760 2763 2782 2784 2786 2789 2795 2816 2817 2819 0
1 2825 2831 2838 2841 2842 2845 2853 2857 2861 2871 2876 2877 2880 2881 0
1 2897 2902 2905 2912 2921 2926 2930 2933 2934 2938 2943 2947 2956 2960 0
1 2965 2968 2994 3006 3009 3010 3012 3016 3018 3022 3029 3040 3043 3047 0
1 3049 3057 3063 3068 3071 3073 3074 3080 3082 3084 3085 3087 3105 3112 0
1 3115 3129 3131 3133 3135 3137 3140 3143 3146 3148 3161 3164 3170 3175 0
1 3188 3194 3197 3198 3214 3219 3220 3225 3231 3233 3246 3259 3266 3271 0
1 3280 3285 3295 3297 3301 3302 3304 3309 3312 3318 3321 3322 3326 3329 0
1 3332 3334 3337 3341 3343 3346 3352 3353 3358 3372 3373 3382 3384 3387 0
1 3400 3407 3411 3413 3415 3416 3420 3425 3430 3436 3437 3439 3443 3444 0
1 3451 3454 3455 3458 3466 3467 3478 3483 3492 3495 3498 3512 3514 3516 0
1 3522 3524 3536 3537 3540 3542 3544 3545 3546 3554 3559 3563 3564 3568 0
1 3574 3584 3586 3587 3591 3592 3605 3606 3609 3615 3620 3627 3629 3632 0
1 3643 3646 3654 3662 3666 3674 3676 3680 3687 3699 3701 3704 3708 3711 0
1 3715 3736 3738 3753 3756 3762 3775 3786 3787 3789 3790 3792 3798 3800 0
1 3804 3810 3817 3820 3822 3823 3826 3832 3835 3836 3839 3842 3844 3845 0
1 3848 3851 3853 3857 3858 3860 3864 3866 3868 3869 3876 3878 3885 3892 0
1 3901 3902 3905 3906 3919 3924 3927 3928 3934 3939 3953 3956 3965 3967 0
1 3975 3977 3979 3983 3984 3988 3991 3992 3994 4000 4003 4006 4012 4031 0
1 4037 4038 4044 4045 4049 4051 4053 4060 4069 4070 4084 4106 4114 4118 0
1 4143 4165 4168 4174 4180 4186 4188 4189 4192 4215 4216 4227 4234 4244 0
1 4250 4251 4255 4258 4263 4267 4283 4289 4308 4310 4313 4316 4317 4324 0
1 4329 4331 4333 4334 4347 4354 4359 4360 4361 4362 4363 4368 4369 4373 0
1 4378 4381 4387 4388 4397 4399 4407 4410 4411 4416 4424 4427 4429 4432 0
1 4438 4446 4448 4459 4461 4471 4476 4477 4484 4488 4489 4491 4495 4498 0
1 4503 4507 4509 4511 4523 4537 4541 4544 4553 4563 4568 4574 4589 4590 0
1 4609 4612 4614 4621 4627 4642 4644 4645 4656 4662 4670 4672 4677 4678 0
1 4685 4697 4700 4701 4715 4718 4722 4736 4741 4746 4748 4749 4751 4755 0
1 4757 4758 4761 4780 4783 4789 4798 4799 4808 4815 4820 4822 4825 4837 0
1 4844 4852 4853 4856 4862 4886 4890 4891 4892 4894 4905 4916 4923 4935 0
1 4955 4956 4957 4960 4961 4964 4965 4973 4975 4976 4981 4990 5000 0
1  0
1 10 17 18 19 20 30 34 36 41 45 47 56 71 73 0
1 76 80 85 92 105 107 108 113 115 117 120 127 132 135 0
1 139 143 147 149 157 159 162 165 174 178 180 197 202 208 0
1 226 227 232 237 245 256 260 266 273 276 278 299 309 317 0
1 320 323 326 339 340 347 354 357 359 361 367 368 370 372 0
1 374 376 377 380 382 389 392 399 416 417 418 421 422 427 0
1 434 438 445 447 449 455 459 460 465 467 471 483 488 489 0
1 495 501 510 520 528 529 537 539 543 551 562 578 580 583 0
1 590 592 596 601 603 605 612 613 625 631 636 640 642 644 0
1 653 656 658 660 667 674 683 684 695 701 705 706 707 719 0
1 728 729 731 732 745 747 748 759 761 769 776 781 784 785 0
1 791 803 806 808 811 815 821 830 832 838 841 844 847 857 0
1 870 871 875 879 917 918 920 921 922 925 928 930 933 949 0
1 957 959 963 966 969 971 972 973 974 982 983 991 994 997 0
1 1006 1008 1009 1021 1030 1031 1033 1034 1047 1051 1070 1072 1074 1075 0
1 1078 1083 1090 1091 1099 1100 1103 1106 1109 1112 1130 1141 1143 1147 0
1 1171 1179 1188 1195 1204 1207 1218 1222 1229 1238 1241 1245 1250 1251 0
1 1258 1265 1267 1268 1270 1301 1314 1317 1318 1320 1322 1326 1333 1352 0
1 1356 1359 1360 1370 1380 1384 1385 1387 1389 1407 1408 1410 1413 1415 0
1 1425 1435 1440 1446 1448 1449 1450 1451 1455 1462 1468 1472 1486 1502 0
1 1514 1523 1530 1541 1542 1545 1552 1563 1566 1568 1571 1573 1574 1576 0
1 1579 1599 1614 1620 1631 1634 1635 1640 1645 1646 1653 1658 1662 1668 0
1 1681 1685 1697 1700 1701 1706 1707 1709 1720 1721 1722 1730 1734 1746 0
1 1757 1760 1762 1772 1773 1785 1789 1795 1802 1806 1814 1816 1827 1847 0
1 1860 1868 1871 1873 1874 1880 1904 1909 1915 1918 1920 1921 1926 1932 0
1 1938 1939 1940 1941 1942 1946 1949 1950 1954 1955 1961 1970 1974 1978 0
1 1983 1985 1988 1990 2003 2006 2011 2012 2027 2028 2029 2032 2035 2036 0
1 2046 2047 2053 2058 2059 2064 2071 2077 2079 2081 2087 2091 2094 2095 0
1 2105 2106 2110 2118 2121 2125 2129 2132 2135 2138 2143 2144 2147 2149 0
1 2158 2162 2163 2166 2171 2174 2177 2181 2186 2189 2201 2208 2219 2228 0
1 2235 2245 2248 2263 2264 2269 2270 2274 2276 2277 2279 2280 2286 2289 0
